pr_w = 30;
pr_h = 30;

n_pieces = 20;

L = [|3, 3
     |3, 4
     |3, 5
     |3, 6
     |3, 7
     |3, 8
     |3, 9
     |3, 10
     |3, 11
     |3, 13
     |3, 14
     |3, 16
     |3, 19
     |3, 25
     |4, 3
     |4, 4
     |4, 6
     |4, 8
     |4, 9
     |11, 30
     |];
